/* objective function */

Min: 22X11 + 14X12 + 30X13 + 16X21 + 20X22 + 24X23 + 600X11 + 600X12 + 600X13 + 625X21 + 625X22 + 625X23;

/* Constraints */

X11 + X21 >= 80;
X12 + X22 >= 60;
X13 + X23 >= 70; 
X11 + X12 + X13 <= 100;
X21 + X22 + X23 <= 120;